8390263467412271413507,11,1,2,010,15,1,2,02,9,1,2,04,7,1,2,013,3,1,2,013,12,1,2,02,2,1,2,014,4,1,2,02,1,1,2,06,8,1,2,03,9,1,2,08,2,1,2,02,1,1,2,08,15,1,2,05,5,1,2,02,1,1,2,015,3,1,2,02,13,1,2,011,8,1,2,03,9,1,2,01,12,1,2,015,8,1,2,02,14,1,2,014,13,1,2,011,12,1,2,02,1,1,2,08,4,1,2,06,13,1,2,010,5,1,2,08,9,1,2,02,11,1,2,02,3,1,2,011,4,1,2,06,7,1,2,05,10,1,2,04,12,1,2,09,7,1,2,013,13,1,2,06,13,1,2,05,10,1,2,01,11,1,2,014,1,1,2,011,2,1,2,01,5,1,2,04,9,1,2,04,5,1,2,05,6,1,2,06,11,1,2,012,13,1,2,02,10,1,2,0